decision_x1=[0,2];
decision_x2=[0,2];
decision_x3=[0,2];
decision_x4=[0,2];
decision_x5=[0,2];
decision_x6=[0,2];
decision_x7=[0,2];
decision_x8=[0,2];
decision_x9=[0,2];
decision_x10=[0,2];
decision_x11=[0,2];
decision_x12=[0,2];
random_y1=[0,2];
random_y2=[0,2];
random_y3=[0,2];
random_y4=[0,2];
random_y5=[0,2];
random_y6=[0,2];
random_y7=[0,2];
random_y8=[0,2];
random_y9=[0,2];
random_y10=[0,2];
random_y11=[0,2];
random_y12=[0,2];
constraint_x2_x1=[
0,0,2.8|
0,1,2.2|
0,2,9.8|
1,0,0.51|
1,1,4.5|
1,2,9.1|
2,0,8.5|
2,1,1.1|
2,2,4.6|
];
constraint_x3_x1=[
0,0,8|
0,1,7.8|
0,2,6.6|
1,0,2.5|
1,1,1.3|
1,2,3.7|
2,0,2.7|
2,1,3.1|
2,2,3.2|
];
constraint_x4_x1=[
0,0,9.6|
0,1,9.1|
0,2,5.8|
1,0,0.71|
1,1,9|
1,2,7.7|
2,0,8.1|
2,1,9.4|
2,2,3.3|
];
constraint_x4_x3=[
0,0,0.074|
0,1,0.85|
0,2,3.9|
1,0,4.5|
1,1,5.8|
1,2,1.1|
2,0,3|
2,1,3.6|
2,2,2.6|
];
constraint_x5_x4=[
0,0,1.3|
0,1,2.7|
0,2,0.98|
1,0,7.7|
1,1,5.1|
1,2,8.9|
2,0,4|
2,1,4.6|
2,2,10|
];
constraint_x6_x3=[
0,0,2.6|
0,1,5.8|
0,2,1|
1,0,9|
1,1,6.4|
1,2,1.1|
2,0,5.9|
2,1,3.5|
2,2,2.2|
];
constraint_x6_x4=[
0,0,2.5|
0,1,3.9|
0,2,4.1|
1,0,0.24|
1,1,2.8|
1,2,2|
2,0,8.8|
2,1,7.6|
2,2,2.1|
];
constraint_x7_x1=[
0,0,4.7|
0,1,6.5|
0,2,8.7|
1,0,7.6|
1,1,4.5|
1,2,7.1|
2,0,3.4|
2,1,1|
2,2,6.6|
];
constraint_x7_x3=[
0,0,7.6|
0,1,6.6|
0,2,3.3|
1,0,4.2|
1,1,7|
1,2,3.9|
2,0,9.6|
2,1,9|
2,2,3|
];
constraint_x7_x6=[
0,0,1.2|
0,1,4.1|
0,2,8.4|
1,0,9.6|
1,1,3.8|
1,2,1|
2,0,9.7|
2,1,8.5|
2,2,4.2|
];
constraint_x8_x1=[
0,0,9.1|
0,1,8.7|
0,2,9.2|
1,0,3.8|
1,1,8.6|
1,2,2.9|
2,0,9.3|
2,1,2.8|
2,2,6.2|
];
constraint_x8_x2=[
0,0,5.4|
0,1,5.4|
0,2,5.8|
1,0,6.6|
1,1,9.8|
1,2,1.1|
2,0,2.3|
2,1,6.9|
2,2,2.2|
];
constraint_x8_x3=[
0,0,2.8|
0,1,5.9|
0,2,9.8|
1,0,7.1|
1,1,5.6|
1,2,1.4|
2,0,8.2|
2,1,9.7|
2,2,9.5|
];
constraint_x8_x4=[
0,0,4.8|
0,1,5.1|
0,2,9.2|
1,0,1.3|
1,1,9.9|
1,2,5.3|
2,0,5.2|
2,1,2.8|
2,2,0.45|
];
constraint_x8_x5=[
0,0,3|
0,1,8.8|
0,2,7.2|
1,0,7.5|
1,1,3.6|
1,2,0.38|
2,0,2.1|
2,1,2.8|
2,2,2.3|
];
constraint_x9_x1=[
0,0,5.3|
0,1,8.9|
0,2,5.7|
1,0,6.1|
1,1,5.5|
1,2,1.5|
2,0,2.1|
2,1,5|
2,2,8|
];
constraint_x9_x2=[
0,0,7.9|
0,1,8.1|
0,2,4.8|
1,0,6.8|
1,1,2|
1,2,4.4|
2,0,8.7|
2,1,6.2|
2,2,1.3|
];
constraint_x9_x5=[
0,0,3.7|
0,1,0.65|
0,2,8|
1,0,0.31|
1,1,4.1|
1,2,6.2|
2,0,7.1|
2,1,1.6|
2,2,5.1|
];
constraint_x9_x6=[
0,0,3.8|
0,1,4.9|
0,2,4.7|
1,0,4.9|
1,1,6.8|
1,2,9.5|
2,0,8.3|
2,1,4.5|
2,2,9.2|
];
constraint_x9_x7=[
0,0,6.9|
0,1,2.8|
0,2,1.9|
1,0,8.9|
1,1,1.7|
1,2,2.6|
2,0,2.4|
2,1,4.1|
2,2,4|
];
constraint_x9_x8=[
0,0,6.1|
0,1,1.4|
0,2,2.8|
1,0,1.4|
1,1,6.1|
1,2,2.2|
2,0,0.63|
2,1,3.6|
2,2,0.4|
];
constraint_x10_x2=[
0,0,1.5|
0,1,8.6|
0,2,1|
1,0,0.66|
1,1,8.8|
1,2,8.5|
2,0,2.5|
2,1,4.5|
2,2,7.5|
];
constraint_x10_x3=[
0,0,5.6|
0,1,4.3|
0,2,7.7|
1,0,3.3|
1,1,4.9|
1,2,8.7|
2,0,5.7|
2,1,3.1|
2,2,7.8|
];
constraint_x10_x6=[
0,0,5.1|
0,1,3.9|
0,2,7.7|
1,0,1.1|
1,1,0.041|
1,2,2.5|
2,0,1.8|
2,1,5.4|
2,2,2.2|
];
constraint_x10_x9=[
0,0,6.9|
0,1,5.2|
0,2,4.8|
1,0,2.9|
1,1,7.6|
1,2,6.4|
2,0,8.4|
2,1,6.8|
2,2,2.8|
];
constraint_x11_x2=[
0,0,4.9|
0,1,9.5|
0,2,3.6|
1,0,3|
1,1,4|
1,2,0.81|
2,0,4.1|
2,1,0.54|
2,2,3.7|
];
constraint_x11_x4=[
0,0,1.7|
0,1,6.1|
0,2,8.3|
1,0,6.6|
1,1,7.5|
1,2,7.2|
2,0,4.2|
2,1,7.7|
2,2,0.75|
];
constraint_x11_x5=[
0,0,7|
0,1,2.4|
0,2,5|
1,0,7|
1,1,2.6|
1,2,8|
2,0,8.6|
2,1,9.6|
2,2,6.4|
];
constraint_x11_x6=[
0,0,8.1|
0,1,6|
0,2,3.1|
1,0,9.9|
1,1,0.18|
1,2,3.4|
2,0,3.5|
2,1,0.076|
2,2,9|
];
constraint_x11_x9=[
0,0,0.25|
0,1,3.3|
0,2,5.6|
1,0,0.8|
1,1,2|
1,2,2.6|
2,0,0.047|
2,1,7|
2,2,1.2|
];
constraint_x12_x2=[
0,0,0.015|
0,1,8.2|
0,2,5.7|
1,0,2.6|
1,1,5.4|
1,2,6.5|
2,0,8.3|
2,1,8.4|
2,2,7.5|
];
constraint_x12_x5=[
0,0,8.5|
0,1,10|
0,2,4.1|
1,0,0.21|
1,1,0.52|
1,2,0.25|
2,0,0.54|
2,1,5.6|
2,2,3.8|
];
constraint_x12_x6=[
0,0,1.4|
0,1,6.4|
0,2,2.5|
1,0,9.7|
1,1,5.3|
1,2,6.2|
2,0,1.9|
2,1,7.2|
2,2,9.8|
];
constraint_x1_y1=[
0,0,7.2|
0,1,4.2|
0,2,6.8|
1,0,9.5|
1,1,0.57|
1,2,2.7|
2,0,2.6|
2,1,0.99|
2,2,0.36|
];
constraint_x2_y2=[
0,0,5.9|
0,1,0.79|
0,2,9.7|
1,0,5.7|
1,1,2.7|
1,2,1.9|
2,0,3.4|
2,1,3.1|
2,2,9.1|
];
constraint_x3_y3=[
0,0,6.5|
0,1,5.5|
0,2,2.1|
1,0,4.4|
1,1,5.6|
1,2,2.9|
2,0,7.3|
2,1,9|
2,2,5.6|
];
constraint_x4_y4=[
0,0,6|
0,1,7.8|
0,2,0.81|
1,0,6.8|
1,1,4.3|
1,2,0.64|
2,0,8.4|
2,1,6.9|
2,2,8.5|
];
constraint_x5_y5=[
0,0,6.7|
0,1,8.3|
0,2,4.9|
1,0,8|
1,1,8.6|
1,2,9.1|
2,0,2.3|
2,1,4.8|
2,2,1.2|
];
constraint_x6_y6=[
0,0,8|
0,1,7.8|
0,2,0.12|
1,0,7.7|
1,1,2.7|
1,2,4.2|
2,0,1.8|
2,1,0.79|
2,2,4.7|
];
constraint_x7_y7=[
0,0,1.7|
0,1,9.6|
0,2,1.2|
1,0,0.14|
1,1,3|
1,2,2.3|
2,0,4.3|
2,1,2.3|
2,2,2.1|
];
constraint_x8_y8=[
0,0,7|
0,1,9.6|
0,2,7.4|
1,0,3.4|
1,1,7.7|
1,2,7.7|
2,0,2|
2,1,8.8|
2,2,5.8|
];
constraint_x9_y9=[
0,0,9.1|
0,1,3.1|
0,2,4.7|
1,0,3.4|
1,1,9.6|
1,2,8.8|
2,0,5.4|
2,1,1.6|
2,2,8.5|
];
constraint_x10_y10=[
0,0,3.4|
0,1,0.13|
0,2,0.099|
1,0,3.7|
1,1,9.4|
1,2,8.3|
2,0,0.61|
2,1,9.3|
2,2,9.7|
];
constraint_x11_y11=[
0,0,9.1|
0,1,6|
0,2,6.9|
1,0,1|
1,1,8.5|
1,2,6.6|
2,0,1.8|
2,1,8|
2,2,2.8|
];
constraint_x12_y12=[
0,0,0.22|
0,1,9.4|
0,2,4.8|
1,0,6|
1,1,6.2|
1,2,1.4|
2,0,3.5|
2,1,5.2|
2,2,1.9|
];
initial_distribution_y1=[0.65,0.016,0.33];
initial_distribution_y2=[0.055,0.29,0.66];
initial_distribution_y3=[0.075,0.43,0.5];
initial_distribution_y4=[0.41,0.37,0.22];
initial_distribution_y5=[0.52,0.41,0.066];
initial_distribution_y6=[0.43,0.4,0.17];
initial_distribution_y7=[0.33,0.37,0.29];
initial_distribution_y8=[0.32,0.59,0.088];
initial_distribution_y9=[0.37,0.53,0.11];
initial_distribution_y10=[0.19,0.47,0.34];
initial_distribution_y11=[0.23,0.51,0.26];
initial_distribution_y12=[0.51,0.42,0.072];
transition_y1=[
0.49,0.15,0.36|
0.12,0.55,0.33|
0.31,0.58,0.11|
];
transition_y2=[
0.44,0.095,0.46|
0.48,0.37,0.16|
0.39,0.53,0.087|
];
transition_y3=[
0.26,0.5,0.24|
0.46,0.3,0.25|
0.31,0.42,0.27|
];
transition_y4=[
0.33,0.3,0.38|
0.5,0.35,0.15|
0.36,0.2,0.44|
];
transition_y5=[
0.47,0.36,0.17|
0.42,0.51,0.067|
0.17,0.51,0.32|
];
transition_y6=[
0.51,0.25,0.24|
0.59,0.2,0.21|
0.34,0.52,0.14|
];
transition_y7=[
0.31,0.26,0.44|
0.34,0.21,0.45|
0.6,0.1,0.3|
];
transition_y8=[
0.29,0.18,0.53|
0.68,0.28,0.043|
0.33,0.2,0.47|
];
transition_y9=[
0.77,0.11,0.12|
0.36,0.6,0.043|
0.12,0.038,0.84|
];
transition_y10=[
0.37,0.28,0.34|
0.46,0.083,0.45|
0.29,0.67,0.045|
];
transition_y11=[
0.025,0.58,0.4|
0.1,0.41,0.49|
0.19,0.32,0.49|
];
transition_y12=[
0.047,0.31,0.64|
0.25,0.43,0.33|
0.021,0.53,0.45|
];
